13 20 173 152 76 139 134 69 169 105 128 
7 15 133 3 66 180 25 172 148 200 197 
155 41 71 193 89 118 121 42 53 59 
1 30 161 146 185 129 33 29 65 141 52 
157 36 44 50 55 156 181 103 111 102 77 198 108 
72 106 94 12 104 98 163 100 95 159 154 24 
199 93 85 19 6 136 142 183 88 10 74 
149 18 51 168 16 115 171 162 187 79 83 
73 112 54 153 64 56 101 9 75 
132 92 26 68 160 195 116 192 78 110 
46 188 184 135 80 165 21 122 17 27 
87 145 2 8 99 114 125 164 167 179 144 43 97 45 
140 143 196 35 182 175 32 90 82 47 174 107 
4 63 150 137 5 117 131 176 124 39 138 40 119 
67 158 14 81 57 178 189 194 58 70 
147 113 48 34 84 177 127 22 96 186 190 
120 86 31 38 62 23 191 91 
166 130 109 11 126 49 61 28 
123 60 151 37 170 

